% Auto-generated by scripts/generate_dzn.py
% problem_type   = polyominoes
% instance       = polyominoes_71
% source_json    = instances_json/0_low_blowup/polyominoes_71.json
% blowup         = 0.7450980392156863
% representation = NFA

mode = 1;

size = 4;
tiles = 6;
n_expressions = 6;
Q = 45;
S = 7;
q0 = [1, 1, 1, 1, 1, 1];
F = [{14}, {13}, {13}, {4}, {8}, {4}];
d_dfa = array3d(1..6, 1..45, 1..7, [
  % k = 1
    0, 0, 0, 0, 0, 0, 0,
    0, 0, 0, 0, 0, 0, 0,
    0, 0, 0, 0, 0, 0, 0,
    0, 0, 0, 0, 0, 0, 0,
    0, 0, 0, 0, 0, 0, 0,
    0, 0, 0, 0, 0, 0, 0,
    0, 0, 0, 0, 0, 0, 0,
    0, 0, 0, 0, 0, 0, 0,
    0, 0, 0, 0, 0, 0, 0,
    0, 0, 0, 0, 0, 0, 0,
    0, 0, 0, 0, 0, 0, 0,
    0, 0, 0, 0, 0, 0, 0,
    0, 0, 0, 0, 0, 0, 0,
    0, 0, 0, 0, 0, 0, 0,
    0, 0, 0, 0, 0, 0, 0,
    0, 0, 0, 0, 0, 0, 0,
    0, 0, 0, 0, 0, 0, 0,
    0, 0, 0, 0, 0, 0, 0,
    0, 0, 0, 0, 0, 0, 0,
    0, 0, 0, 0, 0, 0, 0,
    0, 0, 0, 0, 0, 0, 0,
    0, 0, 0, 0, 0, 0, 0,
    0, 0, 0, 0, 0, 0, 0,
    0, 0, 0, 0, 0, 0, 0,
    0, 0, 0, 0, 0, 0, 0,
    0, 0, 0, 0, 0, 0, 0,
    0, 0, 0, 0, 0, 0, 0,
    0, 0, 0, 0, 0, 0, 0,
    0, 0, 0, 0, 0, 0, 0,
    0, 0, 0, 0, 0, 0, 0,
    0, 0, 0, 0, 0, 0, 0,
    0, 0, 0, 0, 0, 0, 0,
    0, 0, 0, 0, 0, 0, 0,
    0, 0, 0, 0, 0, 0, 0,
    0, 0, 0, 0, 0, 0, 0,
    0, 0, 0, 0, 0, 0, 0,
    0, 0, 0, 0, 0, 0, 0,
    0, 0, 0, 0, 0, 0, 0,
    0, 0, 0, 0, 0, 0, 0,
    0, 0, 0, 0, 0, 0, 0,
    0, 0, 0, 0, 0, 0, 0,
    0, 0, 0, 0, 0, 0, 0,
    0, 0, 0, 0, 0, 0, 0,
    0, 0, 0, 0, 0, 0, 0,
    0, 0, 0, 0, 0, 0, 0,

  % k = 2
    0, 0, 0, 0, 0, 0, 0,
    0, 0, 0, 0, 0, 0, 0,
    0, 0, 0, 0, 0, 0, 0,
    0, 0, 0, 0, 0, 0, 0,
    0, 0, 0, 0, 0, 0, 0,
    0, 0, 0, 0, 0, 0, 0,
    0, 0, 0, 0, 0, 0, 0,
    0, 0, 0, 0, 0, 0, 0,
    0, 0, 0, 0, 0, 0, 0,
    0, 0, 0, 0, 0, 0, 0,
    0, 0, 0, 0, 0, 0, 0,
    0, 0, 0, 0, 0, 0, 0,
    0, 0, 0, 0, 0, 0, 0,
    0, 0, 0, 0, 0, 0, 0,
    0, 0, 0, 0, 0, 0, 0,
    0, 0, 0, 0, 0, 0, 0,
    0, 0, 0, 0, 0, 0, 0,
    0, 0, 0, 0, 0, 0, 0,
    0, 0, 0, 0, 0, 0, 0,
    0, 0, 0, 0, 0, 0, 0,
    0, 0, 0, 0, 0, 0, 0,
    0, 0, 0, 0, 0, 0, 0,
    0, 0, 0, 0, 0, 0, 0,
    0, 0, 0, 0, 0, 0, 0,
    0, 0, 0, 0, 0, 0, 0,
    0, 0, 0, 0, 0, 0, 0,
    0, 0, 0, 0, 0, 0, 0,
    0, 0, 0, 0, 0, 0, 0,
    0, 0, 0, 0, 0, 0, 0,
    0, 0, 0, 0, 0, 0, 0,
    0, 0, 0, 0, 0, 0, 0,
    0, 0, 0, 0, 0, 0, 0,
    0, 0, 0, 0, 0, 0, 0,
    0, 0, 0, 0, 0, 0, 0,
    0, 0, 0, 0, 0, 0, 0,
    0, 0, 0, 0, 0, 0, 0,
    0, 0, 0, 0, 0, 0, 0,
    0, 0, 0, 0, 0, 0, 0,
    0, 0, 0, 0, 0, 0, 0,
    0, 0, 0, 0, 0, 0, 0,
    0, 0, 0, 0, 0, 0, 0,
    0, 0, 0, 0, 0, 0, 0,
    0, 0, 0, 0, 0, 0, 0,
    0, 0, 0, 0, 0, 0, 0,
    0, 0, 0, 0, 0, 0, 0,

  % k = 3
    0, 0, 0, 0, 0, 0, 0,
    0, 0, 0, 0, 0, 0, 0,
    0, 0, 0, 0, 0, 0, 0,
    0, 0, 0, 0, 0, 0, 0,
    0, 0, 0, 0, 0, 0, 0,
    0, 0, 0, 0, 0, 0, 0,
    0, 0, 0, 0, 0, 0, 0,
    0, 0, 0, 0, 0, 0, 0,
    0, 0, 0, 0, 0, 0, 0,
    0, 0, 0, 0, 0, 0, 0,
    0, 0, 0, 0, 0, 0, 0,
    0, 0, 0, 0, 0, 0, 0,
    0, 0, 0, 0, 0, 0, 0,
    0, 0, 0, 0, 0, 0, 0,
    0, 0, 0, 0, 0, 0, 0,
    0, 0, 0, 0, 0, 0, 0,
    0, 0, 0, 0, 0, 0, 0,
    0, 0, 0, 0, 0, 0, 0,
    0, 0, 0, 0, 0, 0, 0,
    0, 0, 0, 0, 0, 0, 0,
    0, 0, 0, 0, 0, 0, 0,
    0, 0, 0, 0, 0, 0, 0,
    0, 0, 0, 0, 0, 0, 0,
    0, 0, 0, 0, 0, 0, 0,
    0, 0, 0, 0, 0, 0, 0,
    0, 0, 0, 0, 0, 0, 0,
    0, 0, 0, 0, 0, 0, 0,
    0, 0, 0, 0, 0, 0, 0,
    0, 0, 0, 0, 0, 0, 0,
    0, 0, 0, 0, 0, 0, 0,
    0, 0, 0, 0, 0, 0, 0,
    0, 0, 0, 0, 0, 0, 0,
    0, 0, 0, 0, 0, 0, 0,
    0, 0, 0, 0, 0, 0, 0,
    0, 0, 0, 0, 0, 0, 0,
    0, 0, 0, 0, 0, 0, 0,
    0, 0, 0, 0, 0, 0, 0,
    0, 0, 0, 0, 0, 0, 0,
    0, 0, 0, 0, 0, 0, 0,
    0, 0, 0, 0, 0, 0, 0,
    0, 0, 0, 0, 0, 0, 0,
    0, 0, 0, 0, 0, 0, 0,
    0, 0, 0, 0, 0, 0, 0,
    0, 0, 0, 0, 0, 0, 0,
    0, 0, 0, 0, 0, 0, 0,

  % k = 4
    0, 0, 0, 0, 0, 0, 0,
    0, 0, 0, 0, 0, 0, 0,
    0, 0, 0, 0, 0, 0, 0,
    0, 0, 0, 0, 0, 0, 0,
    0, 0, 0, 0, 0, 0, 0,
    0, 0, 0, 0, 0, 0, 0,
    0, 0, 0, 0, 0, 0, 0,
    0, 0, 0, 0, 0, 0, 0,
    0, 0, 0, 0, 0, 0, 0,
    0, 0, 0, 0, 0, 0, 0,
    0, 0, 0, 0, 0, 0, 0,
    0, 0, 0, 0, 0, 0, 0,
    0, 0, 0, 0, 0, 0, 0,
    0, 0, 0, 0, 0, 0, 0,
    0, 0, 0, 0, 0, 0, 0,
    0, 0, 0, 0, 0, 0, 0,
    0, 0, 0, 0, 0, 0, 0,
    0, 0, 0, 0, 0, 0, 0,
    0, 0, 0, 0, 0, 0, 0,
    0, 0, 0, 0, 0, 0, 0,
    0, 0, 0, 0, 0, 0, 0,
    0, 0, 0, 0, 0, 0, 0,
    0, 0, 0, 0, 0, 0, 0,
    0, 0, 0, 0, 0, 0, 0,
    0, 0, 0, 0, 0, 0, 0,
    0, 0, 0, 0, 0, 0, 0,
    0, 0, 0, 0, 0, 0, 0,
    0, 0, 0, 0, 0, 0, 0,
    0, 0, 0, 0, 0, 0, 0,
    0, 0, 0, 0, 0, 0, 0,
    0, 0, 0, 0, 0, 0, 0,
    0, 0, 0, 0, 0, 0, 0,
    0, 0, 0, 0, 0, 0, 0,
    0, 0, 0, 0, 0, 0, 0,
    0, 0, 0, 0, 0, 0, 0,
    0, 0, 0, 0, 0, 0, 0,
    0, 0, 0, 0, 0, 0, 0,
    0, 0, 0, 0, 0, 0, 0,
    0, 0, 0, 0, 0, 0, 0,
    0, 0, 0, 0, 0, 0, 0,
    0, 0, 0, 0, 0, 0, 0,
    0, 0, 0, 0, 0, 0, 0,
    0, 0, 0, 0, 0, 0, 0,
    0, 0, 0, 0, 0, 0, 0,
    0, 0, 0, 0, 0, 0, 0,

  % k = 5
    0, 0, 0, 0, 0, 0, 0,
    0, 0, 0, 0, 0, 0, 0,
    0, 0, 0, 0, 0, 0, 0,
    0, 0, 0, 0, 0, 0, 0,
    0, 0, 0, 0, 0, 0, 0,
    0, 0, 0, 0, 0, 0, 0,
    0, 0, 0, 0, 0, 0, 0,
    0, 0, 0, 0, 0, 0, 0,
    0, 0, 0, 0, 0, 0, 0,
    0, 0, 0, 0, 0, 0, 0,
    0, 0, 0, 0, 0, 0, 0,
    0, 0, 0, 0, 0, 0, 0,
    0, 0, 0, 0, 0, 0, 0,
    0, 0, 0, 0, 0, 0, 0,
    0, 0, 0, 0, 0, 0, 0,
    0, 0, 0, 0, 0, 0, 0,
    0, 0, 0, 0, 0, 0, 0,
    0, 0, 0, 0, 0, 0, 0,
    0, 0, 0, 0, 0, 0, 0,
    0, 0, 0, 0, 0, 0, 0,
    0, 0, 0, 0, 0, 0, 0,
    0, 0, 0, 0, 0, 0, 0,
    0, 0, 0, 0, 0, 0, 0,
    0, 0, 0, 0, 0, 0, 0,
    0, 0, 0, 0, 0, 0, 0,
    0, 0, 0, 0, 0, 0, 0,
    0, 0, 0, 0, 0, 0, 0,
    0, 0, 0, 0, 0, 0, 0,
    0, 0, 0, 0, 0, 0, 0,
    0, 0, 0, 0, 0, 0, 0,
    0, 0, 0, 0, 0, 0, 0,
    0, 0, 0, 0, 0, 0, 0,
    0, 0, 0, 0, 0, 0, 0,
    0, 0, 0, 0, 0, 0, 0,
    0, 0, 0, 0, 0, 0, 0,
    0, 0, 0, 0, 0, 0, 0,
    0, 0, 0, 0, 0, 0, 0,
    0, 0, 0, 0, 0, 0, 0,
    0, 0, 0, 0, 0, 0, 0,
    0, 0, 0, 0, 0, 0, 0,
    0, 0, 0, 0, 0, 0, 0,
    0, 0, 0, 0, 0, 0, 0,
    0, 0, 0, 0, 0, 0, 0,
    0, 0, 0, 0, 0, 0, 0,
    0, 0, 0, 0, 0, 0, 0,

  % k = 6
    0, 0, 0, 0, 0, 0, 0,
    0, 0, 0, 0, 0, 0, 0,
    0, 0, 0, 0, 0, 0, 0,
    0, 0, 0, 0, 0, 0, 0,
    0, 0, 0, 0, 0, 0, 0,
    0, 0, 0, 0, 0, 0, 0,
    0, 0, 0, 0, 0, 0, 0,
    0, 0, 0, 0, 0, 0, 0,
    0, 0, 0, 0, 0, 0, 0,
    0, 0, 0, 0, 0, 0, 0,
    0, 0, 0, 0, 0, 0, 0,
    0, 0, 0, 0, 0, 0, 0,
    0, 0, 0, 0, 0, 0, 0,
    0, 0, 0, 0, 0, 0, 0,
    0, 0, 0, 0, 0, 0, 0,
    0, 0, 0, 0, 0, 0, 0,
    0, 0, 0, 0, 0, 0, 0,
    0, 0, 0, 0, 0, 0, 0,
    0, 0, 0, 0, 0, 0, 0,
    0, 0, 0, 0, 0, 0, 0,
    0, 0, 0, 0, 0, 0, 0,
    0, 0, 0, 0, 0, 0, 0,
    0, 0, 0, 0, 0, 0, 0,
    0, 0, 0, 0, 0, 0, 0,
    0, 0, 0, 0, 0, 0, 0,
    0, 0, 0, 0, 0, 0, 0,
    0, 0, 0, 0, 0, 0, 0,
    0, 0, 0, 0, 0, 0, 0,
    0, 0, 0, 0, 0, 0, 0,
    0, 0, 0, 0, 0, 0, 0,
    0, 0, 0, 0, 0, 0, 0,
    0, 0, 0, 0, 0, 0, 0,
    0, 0, 0, 0, 0, 0, 0,
    0, 0, 0, 0, 0, 0, 0,
    0, 0, 0, 0, 0, 0, 0,
    0, 0, 0, 0, 0, 0, 0,
    0, 0, 0, 0, 0, 0, 0,
    0, 0, 0, 0, 0, 0, 0,
    0, 0, 0, 0, 0, 0, 0,
    0, 0, 0, 0, 0, 0, 0,
    0, 0, 0, 0, 0, 0, 0,
    0, 0, 0, 0, 0, 0, 0,
    0, 0, 0, 0, 0, 0, 0,
    0, 0, 0, 0, 0, 0, 0,
    0, 0, 0, 0, 0, 0, 0
]);
d_nfa = array3d(1..6, 1..45, 1..7, [
  % k = 1
    {3, 16, 21, 31, 34, 36, 39, 45}, {2, 15, 20, 30, 33, 35, 38, 44}, {2, 15, 20, 30, 33, 35, 38, 44}, {2, 15, 20, 30, 33, 35, 38, 44}, {2, 15, 20, 30, 33, 35, 38, 44}, {2, 15, 20, 30, 33, 35, 38, 44}, {2, 15, 20, 30, 33, 35, 38, 44},
    {3}, {2}, {2}, {2}, {2}, {2}, {2},
    {4}, {}, {}, {}, {}, {}, {},
    {}, {5}, {5}, {5}, {5}, {5}, {5},
    {}, {6}, {6}, {6}, {6}, {6}, {6},
    {}, {7}, {7}, {7}, {7}, {7}, {7},
    {}, {8}, {8}, {8}, {8}, {8}, {8},
    {9}, {}, {}, {}, {}, {}, {},
    {}, {10}, {10}, {10}, {10}, {10}, {10},
    {}, {11}, {11}, {11}, {11}, {11}, {11},
    {}, {12}, {12}, {12}, {12}, {12}, {12},
    {}, {13}, {13}, {13}, {13}, {13}, {13},
    {14}, {}, {}, {}, {}, {}, {},
    {}, {14}, {14}, {14}, {14}, {14}, {14},
    {16}, {15}, {15}, {15}, {15}, {15}, {15},
    {}, {17}, {17}, {17}, {17}, {17}, {17},
    {}, {18}, {18}, {18}, {18}, {18}, {18},
    {19}, {}, {}, {}, {}, {}, {},
    {13}, {}, {}, {}, {}, {}, {},
    {21}, {20}, {20}, {20}, {20}, {20}, {20},
    {}, {22}, {22}, {22}, {22}, {22}, {22},
    {}, {23}, {23}, {23}, {23}, {23}, {23},
    {}, {24}, {24}, {24}, {24}, {24}, {24},
    {}, {25}, {25}, {25}, {25}, {25}, {25},
    {26}, {}, {}, {}, {}, {}, {},
    {}, {27}, {27}, {27}, {27}, {27}, {27},
    {}, {28}, {28}, {28}, {28}, {28}, {28},
    {}, {29}, {29}, {29}, {29}, {29}, {29},
    {}, {19}, {19}, {19}, {19}, {19}, {19},
    {31}, {30}, {30}, {30}, {30}, {30}, {30},
    {32}, {}, {}, {}, {}, {}, {},
    {11}, {}, {}, {}, {}, {}, {},
    {34}, {33}, {33}, {33}, {33}, {33}, {33},
    {5}, {}, {}, {}, {}, {}, {},
    {36}, {35}, {35}, {35}, {35}, {35}, {35},
    {}, {37}, {37}, {37}, {37}, {37}, {37},
    {}, {16}, {16}, {16}, {16}, {16}, {16},
    {39}, {38}, {38}, {38}, {38}, {38}, {38},
    {}, {40}, {40}, {40}, {40}, {40}, {40},
    {}, {41}, {41}, {41}, {41}, {41}, {41},
    {}, {42}, {42}, {42}, {42}, {42}, {42},
    {}, {43}, {43}, {43}, {43}, {43}, {43},
    {27}, {}, {}, {}, {}, {}, {},
    {45}, {44}, {44}, {44}, {44}, {44}, {44},
    {8}, {}, {}, {}, {}, {}, {},

  % k = 2
    {2, 14}, {3, 15}, {2, 14}, {2, 14}, {2, 14}, {2, 14}, {2, 14},
    {2}, {3}, {2}, {2}, {2}, {2}, {2},
    {4}, {}, {4}, {4}, {4}, {4}, {4},
    {5}, {}, {5}, {5}, {5}, {5}, {5},
    {6}, {}, {6}, {6}, {6}, {6}, {6},
    {7}, {}, {7}, {7}, {7}, {7}, {7},
    {}, {8}, {}, {}, {}, {}, {},
    {9}, {}, {9}, {9}, {9}, {9}, {9},
    {10}, {}, {10}, {10}, {10}, {10}, {10},
    {11}, {}, {11}, {11}, {11}, {11}, {11},
    {12}, {}, {12}, {12}, {12}, {12}, {12},
    {}, {13}, {}, {}, {}, {}, {},
    {13}, {}, {13}, {13}, {13}, {13}, {13},
    {14}, {15}, {14}, {14}, {14}, {14}, {14},
    {}, {12}, {}, {}, {}, {}, {},
    {}, {}, {}, {}, {}, {}, {},
    {}, {}, {}, {}, {}, {}, {},
    {}, {}, {}, {}, {}, {}, {},
    {}, {}, {}, {}, {}, {}, {},
    {}, {}, {}, {}, {}, {}, {},
    {}, {}, {}, {}, {}, {}, {},
    {}, {}, {}, {}, {}, {}, {},
    {}, {}, {}, {}, {}, {}, {},
    {}, {}, {}, {}, {}, {}, {},
    {}, {}, {}, {}, {}, {}, {},
    {}, {}, {}, {}, {}, {}, {},
    {}, {}, {}, {}, {}, {}, {},
    {}, {}, {}, {}, {}, {}, {},
    {}, {}, {}, {}, {}, {}, {},
    {}, {}, {}, {}, {}, {}, {},
    {}, {}, {}, {}, {}, {}, {},
    {}, {}, {}, {}, {}, {}, {},
    {}, {}, {}, {}, {}, {}, {},
    {}, {}, {}, {}, {}, {}, {},
    {}, {}, {}, {}, {}, {}, {},
    {}, {}, {}, {}, {}, {}, {},
    {}, {}, {}, {}, {}, {}, {},
    {}, {}, {}, {}, {}, {}, {},
    {}, {}, {}, {}, {}, {}, {},
    {}, {}, {}, {}, {}, {}, {},
    {}, {}, {}, {}, {}, {}, {},
    {}, {}, {}, {}, {}, {}, {},
    {}, {}, {}, {}, {}, {}, {},
    {}, {}, {}, {}, {}, {}, {},
    {}, {}, {}, {}, {}, {}, {},

  % k = 3
    {2, 14}, {2, 14}, {3, 15}, {2, 14}, {2, 14}, {2, 14}, {2, 14},
    {2}, {2}, {3}, {2}, {2}, {2}, {2},
    {4}, {4}, {}, {4}, {4}, {4}, {4},
    {5}, {5}, {}, {5}, {5}, {5}, {5},
    {6}, {6}, {}, {6}, {6}, {6}, {6},
    {7}, {7}, {}, {7}, {7}, {7}, {7},
    {}, {}, {8}, {}, {}, {}, {},
    {9}, {9}, {}, {9}, {9}, {9}, {9},
    {10}, {10}, {}, {10}, {10}, {10}, {10},
    {11}, {11}, {}, {11}, {11}, {11}, {11},
    {12}, {12}, {}, {12}, {12}, {12}, {12},
    {}, {}, {13}, {}, {}, {}, {},
    {13}, {13}, {}, {13}, {13}, {13}, {13},
    {14}, {14}, {15}, {14}, {14}, {14}, {14},
    {}, {}, {12}, {}, {}, {}, {},
    {}, {}, {}, {}, {}, {}, {},
    {}, {}, {}, {}, {}, {}, {},
    {}, {}, {}, {}, {}, {}, {},
    {}, {}, {}, {}, {}, {}, {},
    {}, {}, {}, {}, {}, {}, {},
    {}, {}, {}, {}, {}, {}, {},
    {}, {}, {}, {}, {}, {}, {},
    {}, {}, {}, {}, {}, {}, {},
    {}, {}, {}, {}, {}, {}, {},
    {}, {}, {}, {}, {}, {}, {},
    {}, {}, {}, {}, {}, {}, {},
    {}, {}, {}, {}, {}, {}, {},
    {}, {}, {}, {}, {}, {}, {},
    {}, {}, {}, {}, {}, {}, {},
    {}, {}, {}, {}, {}, {}, {},
    {}, {}, {}, {}, {}, {}, {},
    {}, {}, {}, {}, {}, {}, {},
    {}, {}, {}, {}, {}, {}, {},
    {}, {}, {}, {}, {}, {}, {},
    {}, {}, {}, {}, {}, {}, {},
    {}, {}, {}, {}, {}, {}, {},
    {}, {}, {}, {}, {}, {}, {},
    {}, {}, {}, {}, {}, {}, {},
    {}, {}, {}, {}, {}, {}, {},
    {}, {}, {}, {}, {}, {}, {},
    {}, {}, {}, {}, {}, {}, {},
    {}, {}, {}, {}, {}, {}, {},
    {}, {}, {}, {}, {}, {}, {},
    {}, {}, {}, {}, {}, {}, {},
    {}, {}, {}, {}, {}, {}, {},

  % k = 4
    {2, 5}, {2, 5}, {2, 5}, {3, 6}, {2, 5}, {2, 5}, {2, 5},
    {2}, {2}, {2}, {3}, {2}, {2}, {2},
    {}, {}, {}, {4}, {}, {}, {},
    {4}, {4}, {4}, {}, {4}, {4}, {4},
    {5}, {5}, {5}, {6}, {5}, {5}, {5},
    {7}, {7}, {7}, {}, {7}, {7}, {7},
    {8}, {8}, {8}, {}, {8}, {8}, {8},
    {9}, {9}, {9}, {}, {9}, {9}, {9},
    {3}, {3}, {3}, {}, {3}, {3}, {3},
    {}, {}, {}, {}, {}, {}, {},
    {}, {}, {}, {}, {}, {}, {},
    {}, {}, {}, {}, {}, {}, {},
    {}, {}, {}, {}, {}, {}, {},
    {}, {}, {}, {}, {}, {}, {},
    {}, {}, {}, {}, {}, {}, {},
    {}, {}, {}, {}, {}, {}, {},
    {}, {}, {}, {}, {}, {}, {},
    {}, {}, {}, {}, {}, {}, {},
    {}, {}, {}, {}, {}, {}, {},
    {}, {}, {}, {}, {}, {}, {},
    {}, {}, {}, {}, {}, {}, {},
    {}, {}, {}, {}, {}, {}, {},
    {}, {}, {}, {}, {}, {}, {},
    {}, {}, {}, {}, {}, {}, {},
    {}, {}, {}, {}, {}, {}, {},
    {}, {}, {}, {}, {}, {}, {},
    {}, {}, {}, {}, {}, {}, {},
    {}, {}, {}, {}, {}, {}, {},
    {}, {}, {}, {}, {}, {}, {},
    {}, {}, {}, {}, {}, {}, {},
    {}, {}, {}, {}, {}, {}, {},
    {}, {}, {}, {}, {}, {}, {},
    {}, {}, {}, {}, {}, {}, {},
    {}, {}, {}, {}, {}, {}, {},
    {}, {}, {}, {}, {}, {}, {},
    {}, {}, {}, {}, {}, {}, {},
    {}, {}, {}, {}, {}, {}, {},
    {}, {}, {}, {}, {}, {}, {},
    {}, {}, {}, {}, {}, {}, {},
    {}, {}, {}, {}, {}, {}, {},
    {}, {}, {}, {}, {}, {}, {},
    {}, {}, {}, {}, {}, {}, {},
    {}, {}, {}, {}, {}, {}, {},
    {}, {}, {}, {}, {}, {}, {},
    {}, {}, {}, {}, {}, {}, {},

  % k = 5
    {2, 9}, {2, 9}, {2, 9}, {2, 9}, {3, 7}, {2, 9}, {2, 9},
    {2}, {2}, {2}, {2}, {3}, {2}, {2},
    {4}, {4}, {4}, {4}, {}, {4}, {4},
    {5}, {5}, {5}, {5}, {}, {5}, {5},
    {6}, {6}, {6}, {6}, {}, {6}, {6},
    {7}, {7}, {7}, {7}, {}, {7}, {7},
    {}, {}, {}, {}, {8}, {}, {},
    {8}, {8}, {8}, {8}, {}, {8}, {8},
    {9}, {9}, {9}, {9}, {7}, {9}, {9},
    {}, {}, {}, {}, {}, {}, {},
    {}, {}, {}, {}, {}, {}, {},
    {}, {}, {}, {}, {}, {}, {},
    {}, {}, {}, {}, {}, {}, {},
    {}, {}, {}, {}, {}, {}, {},
    {}, {}, {}, {}, {}, {}, {},
    {}, {}, {}, {}, {}, {}, {},
    {}, {}, {}, {}, {}, {}, {},
    {}, {}, {}, {}, {}, {}, {},
    {}, {}, {}, {}, {}, {}, {},
    {}, {}, {}, {}, {}, {}, {},
    {}, {}, {}, {}, {}, {}, {},
    {}, {}, {}, {}, {}, {}, {},
    {}, {}, {}, {}, {}, {}, {},
    {}, {}, {}, {}, {}, {}, {},
    {}, {}, {}, {}, {}, {}, {},
    {}, {}, {}, {}, {}, {}, {},
    {}, {}, {}, {}, {}, {}, {},
    {}, {}, {}, {}, {}, {}, {},
    {}, {}, {}, {}, {}, {}, {},
    {}, {}, {}, {}, {}, {}, {},
    {}, {}, {}, {}, {}, {}, {},
    {}, {}, {}, {}, {}, {}, {},
    {}, {}, {}, {}, {}, {}, {},
    {}, {}, {}, {}, {}, {}, {},
    {}, {}, {}, {}, {}, {}, {},
    {}, {}, {}, {}, {}, {}, {},
    {}, {}, {}, {}, {}, {}, {},
    {}, {}, {}, {}, {}, {}, {},
    {}, {}, {}, {}, {}, {}, {},
    {}, {}, {}, {}, {}, {}, {},
    {}, {}, {}, {}, {}, {}, {},
    {}, {}, {}, {}, {}, {}, {},
    {}, {}, {}, {}, {}, {}, {},
    {}, {}, {}, {}, {}, {}, {},
    {}, {}, {}, {}, {}, {}, {},

  % k = 6
    {2, 5}, {2, 5}, {2, 5}, {2, 5}, {2, 5}, {3, 6}, {2, 5},
    {2}, {2}, {2}, {2}, {2}, {3}, {2},
    {}, {}, {}, {}, {}, {4}, {},
    {4}, {4}, {4}, {4}, {4}, {}, {4},
    {5}, {5}, {5}, {5}, {5}, {6}, {5},
    {7}, {7}, {7}, {7}, {7}, {}, {7},
    {8}, {8}, {8}, {8}, {8}, {}, {8},
    {9}, {9}, {9}, {9}, {9}, {}, {9},
    {3}, {3}, {3}, {3}, {3}, {}, {3},
    {}, {}, {}, {}, {}, {}, {},
    {}, {}, {}, {}, {}, {}, {},
    {}, {}, {}, {}, {}, {}, {},
    {}, {}, {}, {}, {}, {}, {},
    {}, {}, {}, {}, {}, {}, {},
    {}, {}, {}, {}, {}, {}, {},
    {}, {}, {}, {}, {}, {}, {},
    {}, {}, {}, {}, {}, {}, {},
    {}, {}, {}, {}, {}, {}, {},
    {}, {}, {}, {}, {}, {}, {},
    {}, {}, {}, {}, {}, {}, {},
    {}, {}, {}, {}, {}, {}, {},
    {}, {}, {}, {}, {}, {}, {},
    {}, {}, {}, {}, {}, {}, {},
    {}, {}, {}, {}, {}, {}, {},
    {}, {}, {}, {}, {}, {}, {},
    {}, {}, {}, {}, {}, {}, {},
    {}, {}, {}, {}, {}, {}, {},
    {}, {}, {}, {}, {}, {}, {},
    {}, {}, {}, {}, {}, {}, {},
    {}, {}, {}, {}, {}, {}, {},
    {}, {}, {}, {}, {}, {}, {},
    {}, {}, {}, {}, {}, {}, {},
    {}, {}, {}, {}, {}, {}, {},
    {}, {}, {}, {}, {}, {}, {},
    {}, {}, {}, {}, {}, {}, {},
    {}, {}, {}, {}, {}, {}, {},
    {}, {}, {}, {}, {}, {}, {},
    {}, {}, {}, {}, {}, {}, {},
    {}, {}, {}, {}, {}, {}, {},
    {}, {}, {}, {}, {}, {}, {},
    {}, {}, {}, {}, {}, {}, {},
    {}, {}, {}, {}, {}, {}, {},
    {}, {}, {}, {}, {}, {}, {},
    {}, {}, {}, {}, {}, {}, {},
    {}, {}, {}, {}, {}, {}, {}
]);
